101 660
1 50 76 77 3 29 24 54 4 55 25 39 67 23 56 75 41 22 74 72 73 21 58 53 101 28 27 52 31 88 7 62 10 32 90 63 11 64 49 36 47 19 48 82 8 46 45 17 84 5 60 83 18 89 6 94 95 13 87 97 92 99 96 59 93 98 100 37 91 85 61 16 86 44 38 14 42 43 15 57 2 40 26 12 80 68 79 78 34 33 81 51 9 35 71 65 66 20 30 70 69 
